p td 145 220
1 2
1 140
1 5
2 140
2 5
3 108
3 4
3 14
4 108
4 14
5 140
6 102
6 94
6 7
7 102
7 94
8 9
8 138
8 73
9 73
9 138
10 129
10 11
10 127
11 129
11 127
12 121
12 13
12 62
13 121
13 62
14 108
15 16
15 90
15 98
16 90
16 98
17 18
17 29
17 85
18 85
18 29
19 76
19 139
19 20
20 76
20 139
21 125
21 22
21 134
22 134
22 125
23 24
23 116
23 95
24 95
24 116
25 26
25 123
25 66
26 66
26 123
27 28
27 69
27 38
28 69
28 38
29 85
30 34
30 37
30 31
31 34
31 37
32 33
32 83
32 84
33 83
33 84
34 37
35 65
35 36
35 47
36 65
36 47
38 69
39 40
39 113
39 58
40 113
40 58
41 42
41 101
41 46
41 45
42 45
42 46
42 101
43 44
43 126
43 87
44 126
44 87
45 101
45 46
46 101
47 65
48 72
48 49
48 103
49 72
49 103
50 137
50 51
50 61
51 137
51 61
52 53
52 142
52 141
53 141
53 142
54 89
54 77
54 55
55 89
55 77
56 57
56 115
56 86
57 115
57 86
58 113
59 124
59 91
59 60
60 91
60 124
61 137
62 121
63 64
63 100
63 78
64 100
64 78
66 123
67 136
67 68
67 135
68 136
68 135
70 88
70 99
70 71
71 88
71 99
72 103
73 138
74 81
74 82
74 75
75 81
75 82
76 139
77 89
78 100
79 80
79 132
79 111
80 111
80 132
81 82
83 84
86 115
87 126
88 99
90 98
91 124
92 133
92 93
92 117
93 117
93 133
94 102
95 116
96 97
96 130
96 131
97 130
97 131
104 105
104 118
104 145
105 145
105 118
106 144
106 114
106 107
107 144
107 114
109 112
109 128
109 110
110 112
110 128
111 132
112 128
114 144
117 133
118 145
119 120
119 122
119 143
120 122
120 143
122 143
125 134
127 129
130 131
135 136
141 142
